%chk=benzene_trip.chk
# UHF/3-21G guess=read geom=allcheck td