%chk=benzene.chk
# HF/3-21G guess=read geom=allcheck td