%chk=benzene.chk
# B3LYP/3-21G guess=read geom=allcheck td