%chk=benzene_trip.chk
# UB3LYP/3-21G guess=read geom=allcheck td iop(9/40=2)